10
1 0 2
2 0 5
2 1 5
3 0 11
3 1 5
3 2 5
4 0 9
4 1 1
4 2 5
4 3 4
5 0 4
5 1 1
5 2 4
5 3 3
5 4 7
6 0 2
6 1 9
6 2 11
6 3 10
6 4 2
6 5 7
7 0 9
7 1 6
7 2 7
7 3 10
7 4 2
7 5 9
7 6 2
8 0 7
8 1 10
8 2 1
8 3 11
8 4 5
8 5 11
8 6 7
8 7 9
9 0 7
9 1 1
9 2 2
9 3 5
9 4 11
9 5 9
9 6 8
9 7 6
9 8 2
